Version identifier: 22.1.0.0 | 2022-03-09 | 1a383f8ce
CPXPARAM_Threads                                 1
CPXPARAM_MIP_Strategy_VariableSelect             3
CPXPARAM_TimeLimit                               599.99998452099999
1 of 1 MIP starts provided solutions.
MIP start 'm1' defined initial solution with objective 3.0000.
Tried aggregator 1 time.
MIP Presolve eliminated 9 rows and 0 columns.
MIP Presolve modified 4 coefficients.
Reduced MIP has 1415 rows, 4800 columns, and 66253 nonzeros.
Reduced MIP has 4800 binaries, 0 generals, 0 SOSs, and 0 indicators.
Presolve time = 0.04 sec. (36.08 ticks)
Probing time = 0.00 sec. (5.88 ticks)
Tried aggregator 1 time.
Detecting symmetries...
Reduced MIP has 1415 rows, 4800 columns, and 66253 nonzeros.
Reduced MIP has 4800 binaries, 0 generals, 0 SOSs, and 0 indicators.
Presolve time = 0.05 sec. (38.65 ticks)
Probing time = 0.00 sec. (5.88 ticks)
Clique table members: 795.
MIP emphasis: balance optimality and feasibility.
MIP search method: dynamic search.
Parallel mode: none, using 1 thread.
Root relaxation solution time = 0.78 sec. (818.14 ticks)

        Nodes                                         Cuts/
   Node  Left     Objective  IInf  Best Integer    Best Bound    ItCnt     Gap

*     0+    0                            3.0000     4800.0000              --- 
      0     0      200.0000   847        3.0000      200.0000     3552     --- 
      0     0      200.0000   632        3.0000      Cuts: 11     7520     --- 
      0     0      200.0000   616        3.0000       Cuts: 6    10276     --- 
      0     0      200.0000   451        3.0000   ZeroHalf: 5    11049     --- 
*     0+    0                          168.0000      200.0000            19.05%
      0     0        cutoff            168.0000      200.0000    11049   19.05%
Detecting symmetries...
      0     2      200.0000   278      168.0000      200.0000    11049   19.05%
Elapsed time = 32.33 sec. (36045.68 ticks, tree = 0.01 MB, solutions = 2)
      1     1        cutoff            168.0000      200.0000    13711   19.05%
      2     2      200.0000   562      168.0000      200.0000    17105   19.05%
      3     3      200.0000   509      168.0000      200.0000    24165   19.05%
      4     4      200.0000   731      168.0000      200.0000    27338   19.05%
      5     5      200.0000   676      168.0000      200.0000    36058   19.05%
      6     6      199.9368   700      168.0000      200.0000    41357   19.05%
      7     7      200.0000   711      168.0000      200.0000    42944   19.05%
      8     8      200.0000   670      168.0000      200.0000    43378   19.05%
      9     9      200.0000   670      168.0000      200.0000    43380   19.05%
     11    11      200.0000   537      168.0000      200.0000    52392   19.05%
Elapsed time = 43.59 sec. (48336.26 ticks, tree = 0.05 MB, solutions = 2)
     14    14      200.0000   550      168.0000      200.0000    53402   19.05%
     17    15      200.0000   573      168.0000      200.0000    60589   19.05%
     20    18      200.0000   560      168.0000      200.0000    65899   19.05%
     22    20      200.0000   571      168.0000      200.0000    74177   19.05%
     25    21      200.0000   561      168.0000      200.0000    75427   19.05%
     27    23      200.0000   516      168.0000      200.0000    79201   19.05%
     29    25      199.8876   644      168.0000      200.0000    84538   19.05%
     30    26      200.0000   553      168.0000      200.0000    85476   19.05%
     32    28      200.0000   498      168.0000      200.0000    86697   19.05%
     35    31      199.7869   507      168.0000      200.0000    94191   19.05%
Elapsed time = 61.10 sec. (66809.20 ticks, tree = 0.11 MB, solutions = 2)
     38    34      199.9787   535      168.0000      200.0000    96225   19.05%
     40    36      200.0000   483      168.0000      200.0000    97358   19.05%
     44    40      200.0000   469      168.0000      200.0000   103701   19.05%
     46    42      200.0000   449      168.0000      200.0000   115138   19.05%
     48    44      199.8125   477      168.0000      200.0000   117608   19.05%
     50    46      200.0000   449      168.0000      200.0000   130093   19.05%
     52    48      200.0000   474      168.0000      200.0000   132349   19.05%
     55    51      200.0000   393      168.0000      200.0000   134866   19.05%
     58    54      200.0000   417      168.0000      200.0000   140844   19.05%
     60    56      199.6949   407      168.0000      200.0000   155016   19.05%
Elapsed time = 73.31 sec. (79503.87 ticks, tree = 0.16 MB, solutions = 2)
     61    57      200.0000   320      168.0000      200.0000   160039   19.05%
     63    59      200.0000   335      168.0000      200.0000   162944   19.05%
     66    62      200.0000   361      168.0000      200.0000   169406   19.05%
     68    64      200.0000   341      168.0000      200.0000   180111   19.05%
     70    65      188.0000   449      168.0000      200.0000   182661   19.05%
     73    68      200.0000   332      168.0000      200.0000   185447   19.05%
     76    70      200.0000   333      168.0000      200.0000   188517   19.05%
     77    71      199.6617   384      168.0000      200.0000   195697   19.05%
     80    74      199.6784   428      168.0000      200.0000   198473   19.05%
     83    77      200.0000   352      168.0000      200.0000   210329   19.05%
Elapsed time = 86.11 sec. (92612.12 ticks, tree = 0.29 MB, solutions = 2)
     86    80      199.9327   412      168.0000      200.0000   214015   19.05%
     90    84      200.0000   316      168.0000      200.0000   227070   19.05%
     93    87      199.7992   383      168.0000      200.0000   236486   19.05%
     98    92      200.0000   318      168.0000      200.0000   239425   19.05%
    100    94      199.8505   373      168.0000      200.0000   241559   19.05%
    104    98      199.8505   388      168.0000      200.0000   244250   19.05%
    109   103      199.8958   400      168.0000      200.0000   246408   19.05%
    113   107      198.9375   407      168.0000      200.0000   249257   19.05%
    118   112      197.0000   384      168.0000      200.0000   251734   19.05%
    123   117      198.9375   392      168.0000      200.0000   254430   19.05%
Elapsed time = 97.61 sec. (104695.36 ticks, tree = 0.37 MB, solutions = 2)
    127   121      199.7992   404      168.0000      200.0000   257626   19.05%
    132   126      199.8214   408      168.0000      200.0000   259530   19.05%
    139   130      198.9375   413      168.0000      200.0000   261493   19.05%
    145   135      199.7703   403      168.0000      200.0000   264198   19.05%
    150   140      199.7513   417      168.0000      200.0000   266491   19.05%
    156   145      199.0000   404      168.0000      200.0000   268652   19.05%
    160   149      199.7007   417      168.0000      200.0000   269689   19.05%
    165   153      199.6480   334      168.0000      200.0000   272772   19.05%
    171   159      199.5102   325      168.0000      200.0000   276168   19.05%
    177   164      199.4792   288      168.0000      200.0000   279626   19.05%
Elapsed time = 107.62 sec. (115439.06 ticks, tree = 0.46 MB, solutions = 2)
    183   170      199.4576   390      168.0000      200.0000   282738   19.05%
    190   175      198.5714   381      168.0000      200.0000   286619   19.05%
    198   181      199.4319   374      168.0000      200.0000   288580   19.05%
    204   187      199.0667   331      168.0000      200.0000   291173   19.05%
    212   193      198.5714   401      168.0000      200.0000   294493   19.05%
    220   200      199.4288   396      168.0000      200.0000   296988   19.05%
    229   208      198.9125   392      168.0000      200.0000   300502   19.05%
    236   214      198.8000   321      168.0000      200.0000   303536   19.05%
    244   221      198.6887   371      168.0000      200.0000   306949   19.05%
    252   227      198.7500   368      168.0000      200.0000   309151   19.05%
Elapsed time = 118.20 sec. (126483.03 ticks, tree = 0.59 MB, solutions = 2)
    258   232      198.8907   369      168.0000      200.0000   311967   19.05%
    263   237      199.0000   416      168.0000      200.0000   313822   19.05%
    271   244      199.3333   339      168.0000      200.0000   315955   19.05%
    277   249      199.3275   360      168.0000      200.0000   318749   19.05%
    284   255      199.3182   400      168.0000      200.0000   320793   19.05%
    292   260      198.5714   286      168.0000      200.0000   323970   19.05%
    299   266      199.2667   392      168.0000      200.0000   325761   19.05%
    304   270      199.2667   323      168.0000      200.0000   327376   19.05%
    311   276      199.2667   326      168.0000      200.0000   329916   19.05%
    318   283      199.2667   331      168.0000      200.0000   332408   19.05%
Elapsed time = 128.01 sec. (136569.77 ticks, tree = 0.72 MB, solutions = 2)
    323   287      199.2053   341      168.0000      200.0000   333215   19.05%
    333   295      198.6818   341      168.0000      200.0000   335207   19.05%
    339   296      198.8718   302      168.0000      200.0000   338775   19.05%
    347   303      198.1492   326      168.0000      200.0000   341746   19.05%
    356   310      197.6923   280      168.0000      200.0000   344552   19.05%
    367   313      197.6923   269      168.0000      200.0000   347313   19.05%
    378   319      197.5000   257      168.0000      200.0000   349367   19.05%
    390   322      197.0000   268      168.0000      200.0000   351892   19.05%
    403   325      196.6667   258      168.0000      200.0000   354568   19.05%
    415   329      196.6667   272      168.0000      200.0000   356358   19.05%
Elapsed time = 138.34 sec. (146839.62 ticks, tree = 0.81 MB, solutions = 2)
    428   332      196.6667   259      168.0000      200.0000   358519   19.05%
    442   333      195.0000   203      168.0000      200.0000   360627   19.05%
    454   335      200.0000   254      168.0000      200.0000   365020   19.05%
    457   338      199.9639   413      168.0000      200.0000   368544   19.05%
    459   340      199.9303   366      168.0000      200.0000   372722   19.05%
    464   345      199.7835   324      168.0000      200.0000   375721   19.05%
    468   349      199.9303   364      168.0000      200.0000   378490   19.05%
    472   353      199.9303   366      168.0000      200.0000   380975   19.05%
    476   357      199.8345   353      168.0000      200.0000   383848   19.05%
    494   374      199.8509   457      168.0000      200.0000   391976   19.05%
Elapsed time = 151.37 sec. (160723.38 ticks, tree = 0.90 MB, solutions = 2)
    515   394      198.7500   317      168.0000      200.0000   399567   19.05%
    538   415      199.7368   372      168.0000      200.0000   407644   19.05%
    561   436      198.0000   322      168.0000      200.0000   415921   19.05%
    585   458      199.5024   316      168.0000      200.0000   425482   19.05%
    612   481      199.5775   362      168.0000      200.0000   433956   19.05%
    638   498      199.5093   373      168.0000      200.0000   443907   19.05%
    671   520      198.0392   290      168.0000      200.0000   452786   19.05%
    706   529      199.8849   396      168.0000      200.0000   464414   19.05%
    726   549      199.8017   430      168.0000      200.0000   469056   19.05%
    750   573      199.5139   450      168.0000      200.0000   476722   19.05%
Elapsed time = 188.71 sec. (199845.94 ticks, tree = 1.33 MB, solutions = 2)
    775   595      199.2117   355      168.0000      200.0000   482292   19.05%
    804   624      200.0000   334      168.0000      200.0000   486241   19.05%
    823   643      199.8028   402      168.0000      200.0000   495084   19.05%
    840   659      199.7823   398      168.0000      200.0000   499813   19.05%
    863   679      199.6187   333      168.0000      200.0000   507084   19.05%
    885   700      199.3160   396      168.0000      200.0000   515136   19.05%
    911   723      199.0000   319      168.0000      200.0000   524276   19.05%
    936   746      199.0000   365      168.0000      200.0000   532602   19.05%
*   958+  761                          186.0000      200.0000             7.53%
*   958+  760                          188.0000      200.0000             6.38%
*   958+  760                          190.0000      200.0000             5.26%
    958   762      199.6500   430      190.0000      200.0000   540512    5.26%
    960   764      199.9057   399      190.0000      200.0000   543771    5.26%
Elapsed time = 234.62 sec. (245660.63 ticks, tree = 1.69 MB, solutions = 5)
    961   765      200.0000   345      190.0000      200.0000   544755    5.26%
    962   766      199.6711   419      190.0000      200.0000   546545    5.26%
    981   785      199.4516   379      190.0000      200.0000   554135    5.26%
   1002   805      199.0000   392      190.0000      200.0000   561639    5.26%
   1028   829      199.7755   423      190.0000      200.0000   566446    5.26%
   1050   848      199.7755   436      190.0000      200.0000   573580    5.26%

Performing restart 1

Repeating presolve.
Tried aggregator 1 time.
MIP Presolve eliminated 0 rows and 1 columns.
Reduced MIP has 1415 rows, 4799 columns, and 66230 nonzeros.
Reduced MIP has 4799 binaries, 0 generals, 0 SOSs, and 0 indicators.
Presolve time = 0.04 sec. (33.60 ticks)
Tried aggregator 1 time.
Reduced MIP has 1415 rows, 4799 columns, and 66230 nonzeros.
Reduced MIP has 4799 binaries, 0 generals, 0 SOSs, and 0 indicators.
Presolve time = 0.05 sec. (39.83 ticks)
Represolve time = 0.31 sec. (238.15 ticks)
   1068     0      200.0000   642      190.0000       Cuts: 7   593231    5.26%
   1068     0      200.0000   551      190.0000      Cuts: 32   597842    5.26%
   1068     0      200.0000   499      190.0000      Cuts: 13   606012    5.26%
   1068     0      200.0000   457      190.0000      Cuts: 26   611250    5.26%
   1068     0      200.0000   659      190.0000      Cuts: 16   617830    5.26%
   1068     0      200.0000   354      190.0000      Cuts: 13   623217    5.26%
   1068     0      200.0000   634      190.0000      Cuts: 13   629932    5.26%
   1068     0      200.0000   688      190.0000      Cuts: 18   639717    5.26%
   1068     0      200.0000   660      190.0000      Cuts: 10   647509    5.26%
   1068     0      200.0000   790      190.0000      Cuts: 31   657509    5.26%
   1068     2      200.0000   325      190.0000      200.0000   657509    5.26%
   1071     3      200.0000   575      190.0000      200.0000   673489    5.26%
   1073     5      200.0000   803      190.0000      200.0000   690153    5.26%
   1076     8      200.0000   657      190.0000      200.0000   707361    5.26%
Elapsed time = 414.36 sec. (444062.90 ticks, tree = 0.04 MB, solutions = 5)
   1078    10      200.0000   435      190.0000      200.0000   718857    5.26%
   1086    18      200.0000   426      190.0000      200.0000   750766    5.26%
   1092    24      199.9607   574      190.0000      200.0000   785283    5.26%
   1096    28      200.0000   374      190.0000      200.0000   798031    5.26%
   1099    31      200.0000   377      190.0000      200.0000   820539    5.26%
   1104    34      199.8822   496      190.0000      200.0000   832821    5.26%
   1108    38      199.9018   534      190.0000      200.0000   853376    5.26%
   1114    44      199.9476   508      190.0000      200.0000   870002    5.26%
   1118    48      199.8036   464      190.0000      200.0000   887044    5.26%
   1122    52      200.0000   364      190.0000      200.0000   900380    5.26%
Elapsed time = 465.45 sec. (498530.94 ticks, tree = 0.15 MB, solutions = 5)
   1126    56      199.8691   492      190.0000      200.0000   918528    5.26%
   1128    58      199.9215   490      190.0000      200.0000   944766    5.26%
   1134    63      200.0000   329      190.0000      200.0000   953805    5.26%
   1140    67      199.9267   451      190.0000      200.0000   968265    5.26%
   1144    71      199.9267   419      190.0000      200.0000   986342    5.26%
   1147    74      200.0000   319      190.0000      200.0000  1001048    5.26%
   1153    80      200.0000   272      190.0000      200.0000  1012584    5.26%
   1156    83      200.0000   447      190.0000      200.0000  1029441    5.26%
   1162    89      200.0000   430      190.0000      200.0000  1042864    5.26%
   1167    92      199.8533   521      190.0000      200.0000  1058435    5.26%
Elapsed time = 510.87 sec. (545503.13 ticks, tree = 0.51 MB, solutions = 5)
Starting limited solution polishing.
   1168    93      200.0000   417      190.0000      200.0000  1059075    5.26%
   1172    96      199.7555   484      190.0000      200.0000  1074815    5.26%
   1176   100      200.0000   355      190.0000      200.0000  1092182    5.26%
   1180   103      200.0000   342      190.0000      200.0000  1108754    5.26%
   1185   108      200.0000   359      190.0000      200.0000  1126712    5.26%
   1193   116      200.0000   384      190.0000      200.0000  1136638    5.26%
   1201   124      200.0000   336      190.0000      200.0000  1147819    5.26%
   1211   133      200.0000   331      190.0000      200.0000  1156921    5.26%
   1222   143      199.8607   394      190.0000      200.0000  1168687    5.26%
   1232   149      199.6461   329      190.0000      200.0000  1176467    5.26%
Elapsed time = 588.17 sec. (620476.31 ticks, tree = 1.19 MB, solutions = 5)
   1245   157      200.0000   311      190.0000      200.0000  1186918    5.26%
   1256   164      199.4409   303      190.0000      200.0000  1199289    5.26%
   1268   175      199.6484   272      190.0000      200.0000  1207574    5.26%

Clique cuts applied:  3
Zero-half cuts applied:  20
Gomory fractional cuts applied:  6

Root node processing (before b&c):
  Real time             =   32.27 sec. (35973.15 ticks)
Sequential b&c:
  Real time             =  567.73 sec. (597154.55 ticks)
                          ------------
Total (root+branch&cut) =  600.00 sec. (633127.70 ticks)
Primal:	190
Dual:	200
Status:	Feasible
Time:	600
Sequence:
	21
	8
	14
	12
	17
	0
	22
	6
	14
	12
	17
	1
	20
	6
	15
	10
	19
	0
	20
	6
	14
	4
	18
	6
	16
	6
	19
	4
	7
	6
	16
	6
	17
	5
	17
	8
	16
	6
	18
	2
	17
	8
	15
	7
	14
	10
	8
	14
	10
	9
	14
	10
	14
	8
	11
	14
	8
	10
	15
	7
	14
	8
	14
	6
	15
	6
	9
	16
	6
	17
	4
	17
	9
	14
	10
	15
	6
	18
	2
	17
	6
	16
	8
	18
	4
	17
	6
	16
	8
	17
	4
	17
	7
	16
	6
	19
	2
	18
	6
	14
	12
	14
	8
	20
	0
	17
	12
	14
	8
	16
	6
	17
	5
	17
	8
	16
	6
	17
	5
	14
	6
	19
	2
	19
	7
	16
	8
	17
	4
	6
	14
	8
	11
	15
	6
	14
	10
	9
	14
	8
	10
	14
	8
	14
	13
	14
	6
	14
	10
	15
	7
	15
	6
	14
	8
	17
	3
	17
	8
	14
	6
	17
	5
	17
	8
	16
	6
	19
	3
	19
	6
	16
	6
	14
	10
	17
	1
	22
	6
	14
	6
	17
	3
	15
	8
	14
	10
	14
	9
	20
